clingo version 5.6.2
Reading from ...gen_asp_scripts/ijp_expt_cases-1095.dl
Solving...
UNSATISFIABLE

Models       : 0
Calls        : 1
Time         : 1321.265s (Solving: 1317.90s 1st Model: 0.00s Unsat: 1317.90s)
CPU Time     : 1320.367s
